p edge 50 104 15
v 3 5 30 42
v 3 24 29 45
v 2 12 32
v 5 14 16 17 19 43
v 1 25
v 5 9 13 28 31 36
v 4 1 18 21 23
v 3 4 10 37
v 2 27 38
v 3 39 46 49
v 5 22 26 34 44 47
v 1 40
v 3 2 20 35
v 3 3 11 41
v 7 6 7 8 15 33 48 50
e 1 5
e 1 15
e 1 47
e 2 8
e 2 19
e 2 38
e 2 48
e 3 10
e 3 12
e 3 17
e 3 35
e 4 16
e 4 37
e 4 41
e 4 43
e 5 8
e 5 10
e 5 19
e 5 22
e 5 48
e 6 11
e 6 18
e 6 39
e 7 20
e 7 23
e 7 32
e 7 41
e 7 49
e 7 50
e 8 15
e 8 34
e 8 39
e 8 40
e 8 42
e 8 50
e 9 24
e 9 28
e 9 34
e 9 36
e 11 38
e 11 44
e 11 47
e 11 50
e 12 21
e 12 23
e 12 33
e 12 37
e 12 43
e 13 30
e 13 32
e 13 36
e 13 39
e 13 44
e 14 15
e 14 32
e 15 21
e 15 31
e 15 33
e 15 43
e 16 27
e 16 28
e 16 39
e 16 41
e 16 43
e 16 48
e 17 32
e 17 43
e 17 46
e 17 50
e 18 37
e 18 47
e 19 40
e 20 22
e 20 28
e 20 33
e 20 36
e 20 37
e 21 28
e 21 29
e 21 31
e 22 27
e 22 49
e 23 47
e 24 38
e 25 28
e 26 49
e 27 28
e 27 38
e 29 33
e 29 41
e 29 43
e 29 44
e 32 33
e 33 35
e 33 42
e 34 37
e 34 45
e 35 45
e 36 45
e 37 38
e 39 41
e 40 44
e 42 46
e 46 49
